COMM CeCoAl3 RT #13744 ThCr2Si2 type  TSample:   300.00 K
! Current global Chi2 (Bragg contrib.) =      2.012    
! Files => DAT-file: scale-fit.dat,  PCR-file: scale-fit
!Job Npr Nph Nba Nex Nsc Nor Dum Iwg Ilo Ias Res Ste Nre Cry Uni Cor Opt Aut
  -1   9   1  -5   2   0   0   1   1   0   1   0   0   0   0   1   0   0   1
!
!Ipr Ppl Ioc Mat Pcr Ls1 Ls2 Ls3 NLI Prf Ins Rpa Sym Hkl Fou Sho Ana
   0   2   1   0   1   0   4   0   0   2  10   1   1   0   0   0   0
!
!  Bkpos        Wdt    Iabscor for Pattern#  1
    7000.000    4.20     2
!NCY  Eps  R_at  R_an  R_pr  R_gl    TOF-min      <Step>       TOF-max 
 15  0.02  1.00  1.00  1.00  1.00    3001.5891      4.3357  19004.6582
!
! Excluded regions (LowT  HighT) for Pattern#  1
     2000.10     3000.00
    19000.00    20000.00
! 
!
       0    !Number of refined parameters
!
!    Zero       Code      Dtt1      Code       Dtt2     Code  Dtt_1overd    Code  2ThetaBank  -> Patt#  1
     3.93042    0.00  6176.03076    0.00    -1.92194    0.00     0.00000    0.00   145.000
!
!   Background coefficients/codes  for Pattern#  1  (Chebychev polynomials, up to 24 coefficients)
   26833.258    4390.511    2629.871    -513.844     284.709     163.451
        0.00        0.00        0.00        0.00        0.00        0.00
     240.858     -72.052      15.094     126.006     -12.868    -280.939
        0.00        0.00        0.00        0.00        0.00        0.00
       0.000       0.000       0.000       0.000       0.000       0.000
        0.00        0.00        0.00        0.00        0.00        0.00
       0.000       0.000       0.000       0.000       0.000       0.000
        0.00        0.00        0.00        0.00        0.00        0.00
!-------------------------------------------------------------------------------
!  Data for PHASE number:   1  ==> Current R_Bragg for Pattern#  1:   5.4578
!-------------------------------------------------------------------------------
CeCoAl3
!
!Nat Dis Ang Pr1 Pr2 Pr3 Jbt Irf Isy Str Furth       ATZ    Nvk Npr More
   5   0   0 0.0 0.0 1.0   0   0   0   0   0        616.188   0   9   0
!
!
P m m a                  <--Space group symbol
!Atom   Typ       X        Y        Z     Biso       Occ     In Fin N_t Spc /Codes
Ce     CE      0.25000  0.00000  0.38279  0.50269   0.25000   0   0   0    0  #color green
                  0.00     0.00     0.00     0.00      0.00
Co     CO      0.25000  0.00000  0.81319  0.47596   0.25000   0   0   0    0  #color yellow
                  0.00     0.00     0.00     0.00      0.00
Al1    AL      0.00000  0.00000  0.00000  0.58479   0.25000   0   0   0    0  #conn Al Al 0.0 3.5
                  0.00     0.00     0.00     0.00      0.00
Al2    AL      0.25000  0.50000  0.04117  0.65836   0.25000   0   0   0    0  
                  0.00     0.00     0.00     0.00      0.00
Al3    AL      0.06930  0.50000  0.70070  0.53258   0.51033   0   0   0    0  
                  0.00     0.00     0.00     0.00      0.00
!-------> Profile Parameters for Pattern #   1  ----> Phase #   1
!  Scale          Extinc       Bov      Str1      Str2      Str3    Strain-Mode
  16660.06        0.0016    0.0000    0.0000    0.0000    0.0000         0
          0.00      0.00      0.00      0.00      0.00      0.00
!      Sigma-2       Sigma-1       Sigma-0       Sigma-Q   Iso-GStrain     Iso-GSize     Ani-LSize   Size-Model
        0.0000       39.4615        0.0000        0.0000        0.0000        0.0000        0.0000       0
          0.00          0.00          0.00          0.00          0.00          0.00          0.00
!      Gamma-2       Gamma-1       Gamma-0   Iso-LorStrain   Iso-LorSize
        0.0000        4.7781        0.0000        0.0000        0.0000
          0.00          0.00          0.00          0.00          0.00
!     a          b         c        alpha      beta       gamma      # Cell Info
   7.650381   4.051332   6.905360  90.000000  90.000000  90.000000   
       0.00       0.00       0.00       0.00       0.00       0.00
!      Pref1      Pref2        alph0       beta0       alph1       beta1       alphQ       betaQ
    0.000000    0.000000    0.000000    0.043085    0.297100    0.002867    0.000000    0.000000
        0.00        0.00        0.00        0.00        0.00        0.00        0.00        0.00
!Absorption correction parameters
   0.01561    0.00   0.00000    0.00            ABS: ABSCOR1  ABSCOR2
!  2Th1/TOF1    2Th2/TOF2  Pattern to plot
    3001.589   19000.000       1
