COMM LaB6 Ge(331)
! Current global Chi2 (Bragg contrib.) =      9.133    
! Files => DAT-file: ECH0030684_LaB6_1p622A.dat,  PCR-file: ECH0030684_LaB6_1p622A
!Job Npr Nph Nba Nex Nsc Nor Dum Iwg Ilo Ias Res Ste Nre Cry Uni Cor Opt Aut
   1   7   1   0   2   1   0   1   0   0   1   0   0   0   0   0   0   0   1
!
!Ipr Ppl Ioc Mat Pcr Ls1 Ls2 Ls3 NLI Prf Ins Rpa Sym Hkl Fou Sho Ana
   0   0   1   0   2   0   4   0   0  -3  10  -1   0   0   0   0   1
!
! Lambda1  Lambda2    Ratio    Bkpos    Wdt    Cthm     muR   AsyLim   Rpolarz  2nd-muR -> Patt# 1
 1.622536 1.622536  0.00000   80.000 12.0000  0.0000  0.7000  180.00    0.0000  0.0000
!
!NCY  Eps  R_at  R_an  R_pr  R_gl     Thmin       Step       Thmax    PSD    Sent0
100  0.10  0.40  0.40  0.40  0.40      4.1642   0.049998   163.7564   0.000   0.000
!
! Excluded regions (LowT  HighT) for Pattern#  1
        0.00       10.00
      164.00      180.00
! 
! Additional scattering factors for Pattern#  1
B11     0.66500    0.00000   0
!
      17    !Number of refined parameters
!
!  Zero    Code    SyCos    Code   SySin    Code  Lambda     Code MORE ->Patt# 1
 -0.21356   51.0  0.05395  171.0  0.09127  161.0 1.622536   61.00   0
!   Background coefficients/codes  for Pattern#  1  (Polynomial of 6th degree)
     781.932      75.473     292.094      -3.451    -326.104       0.000
       71.00       81.00       91.00      101.00      111.00        0.00
!-------------------------------------------------------------------------------
!  Data for PHASE number:   1  ==> Current R_Bragg for Pattern#  1:   3.5066
!-------------------------------------------------------------------------------
nuclear
!
!Nat Dis Ang Pr1 Pr2 Pr3 Jbt Irf Isy Str Furth       ATZ    Nvk Npr More
   2   0   0 0.0 0.0 1.0   0   0   0   0   0        203.711   0   7   0
!
!
P m -3 m                 <--Space group symbol
!Atom   Typ       X        Y        Z     Biso       Occ     In Fin N_t Spc /Codes
La     La      0.00000  0.00000  0.00000  0.59716   0.02083   0   0   0    0  
                  0.00     0.00     0.00   151.00      0.00
B      B11     0.50000  0.50000  0.19978  0.44250   0.12500   0   0   0    0  
                  0.00     0.00   131.00   141.00      0.00
!-------> Profile Parameters for Pattern #   1  ----> Phase #   1
!  Scale          Shape1      Bov      Str1      Str2      Str3   Strain-Model
  141.0817       0.00000   0.00000   0.00000   0.00000   0.00000       0
      11.00000     0.000     0.000     0.000     0.000     0.000
!       U            V            W             X            Y         GauSiz      LorSiz    Size-Model
     0.089876    -0.377516     0.476188     0.000000     0.052654     0.000000     0.000000       0
        31.00        41.00        21.00         0.00       121.00         0.00         0.00
!     a          b         c        alpha      beta       gamma      #Cell Info
   4.156885   4.156885   4.156885  90.000000  90.000000  90.000000   
    0.00000    0.00000    0.00000    0.00000    0.00000    0.00000
!  Pref1    Pref2      Asy1     Asy2     Asy3     Asy4      S_L      D_L
  0.00000  0.00000  0.00000  0.00000  0.00000  0.00000  0.08000  0.08000
     0.00     0.00     0.00     0.00     0.00     0.00     0.00     0.00
!  2Th1/TOF1    2Th2/TOF2  Pattern to plot
      10.000     163.756       1
