COMM Y2O3 Ge(551) 300mm_varH 15/10/13
! Current global Chi2 (Bragg contrib.) =      1.263    
! Files => DAT-file: y2o3.dat,  PCR-file: y2o3_isotropic_adp
!Job Npr Nph Nba Nex Nsc Nor Dum Iwg Ilo Ias Res Ste Nre Cry Uni Cor Opt Aut
   1   7   1  21   2   0   0   0   0   0   0   0   0   0   0   0   0   1   1
!
!Ipr Ppl Ioc Mat Pcr Ls1 Ls2 Ls3 NLI Prf Ins Rpa Sym Hkl Fou Sho Ana
   0   2   1   0   1   0   4   0   0   2  10   0   1   0   0   1   1
!
! Lambda1  Lambda2    Ratio    Bkpos    Wdt    Cthm     muR   AsyLim   Rpolarz  2nd-muR -> Patt# 1
 1.548220 1.548220  0.00000   10.000  20.000  0.0000  0.0000  160.00    0.0000  0.0000
!
!NCY  Eps  R_at  R_an  R_pr  R_gl     Thmin       Step       Thmax    PSD    Sent0
  1  0.10  1.00  1.00  1.00  1.00      0.9500   0.050019   153.9000   0.000   0.000
!
!2Theta/TOF/E(Kev)   Background  for Pattern#  1
        12.5856      9864.0967          0.00
        19.4181      9431.1865          0.00
        21.8751      9165.1064          0.00
        27.8998      8813.4053          0.00
        32.9147      8632.3789          0.00
        39.1152      8237.0059          0.00
        45.7120      7896.9585          0.00
        51.9387      7764.3862          0.00
        60.5580      7483.5161          0.00
        68.1982      7260.7822          0.00
        81.3276      7112.5850          0.00
        88.7996      6847.3413          0.00
        94.3171      6772.0112          0.00
        98.1541      6625.6704          0.00
       100.9813      6586.0649          0.00
       104.3134      6502.6460          0.00
       108.7225      6404.9531          0.00
       116.0673      6495.7471          0.00
       121.4862      6277.9780          0.00
       131.2805      6314.6699          0.00
       135.7928      6504.0566          0.00
! 
! Excluded regions (LowT  HighT) for Pattern#  1
        0.00       12.00
      137.50      180.00
! 
!
       0    !Number of refined parameters
!
!  Zero    Code    SyCos    Code   SySin    Code  Lambda     Code MORE ->Patt# 1
 -0.01625    0.0  0.00000    0.0  0.00000    0.0 0.000000    0.00   0
!-------------------------------------------------------------------------------
!  Data for PHASE number:   1  ==> Current R_Bragg for Pattern#  1:   0.0000
!-------------------------------------------------------------------------------
Y2O3
!
!Nat Dis Ang Pr1 Pr2 Pr3 Jbt Irf Isy Str Furth       ATZ    Nvk Npr More
   3   0   0 0.0 0.0 1.0   0   0   0   0   0       3612.974   0   7   0
!
!
I a -3                   <--Space group symbol
!Atom   Typ       X        Y        Z     Biso       Occ     In Fin N_t Spc /Codes
Y1     Y    -0.03236  0.00000  0.25000  0.30000   0.50000   0   0   0    0  
                  0.00     0.00     0.00     0.00      0.00
Y2     Y     0.25000  0.25000  0.25000  0.30000   0.16667   0   0   0    0  
                  0.00     0.00     0.00     0.00      0.00
O1     O     0.39072  0.15204  0.38030  0.50000   1.00000   0   0   0    0  
                  0.00     0.00     0.00     0.00      0.00
!-------> Profile Parameters for Pattern #   1  ----> Phase #   1
!  Scale          Shape1      Bov      Str1      Str2      Str3   Strain-Model
  1.060200       0.00000   0.00000   0.00000   0.00000   0.00000       0
       0.00000     0.000     0.000     0.000     0.000     0.000
!       U            V            W             X            Y         GauSiz      LorSiz    Size-Model
     0.036631    -0.068345     0.131426     0.000000     0.000000     0.000000     0.000000       0
         0.00         0.00         0.00         0.00         0.00         0.00         0.00
!     a          b         c        alpha      beta       gamma      # Cell Info
  10.605744  10.605744  10.605744  90.000000  90.000000  90.000000   
    0.00000    0.00000    0.00000    0.00000    0.00000    0.00000
!  Pref1    Pref2      Asy1     Asy2     Asy3     Asy4      S_L      D_L
  0.00000  0.00000  0.00000  0.00000  0.00000  0.00000  0.00000  0.00000
     0.00     0.00     0.00     0.00     0.00     0.00     0.00     0.00
!  2Th1/TOF1    2Th2/TOF2  Pattern to plot
      12.000     137.500       1
