Fe ferrite high-resolution on BEER
! Current global Chi2 (Bragg contrib.) =      4662.    
NPATT      1       1 <- Flags for patterns (1:refined, 0: excluded)
W_PAT   1.000
!Nph Dum Ias Nre Cry Opt Aut
   1   0   0   0   0   0   1
!Job Npr Nba Nex Nsc Nor Iwg Ilo Res Ste Uni Cor Anm Int
  -1   7  31   2   0   1   0   0   0   0   1   0   0   0  !-> Patt#: 1
!
!File names of data(patterns) files
fe.dat
!
!Mat Pcr NLI Rpa Sym Sho
   1   1   0   0   0   0
!Ipr Ppl Ioc Ls1 Ls2 Ls3 Prf Ins Hkl Fou Ana
   3   2   1   0   4   0   2  10   0   0   1  !-> Patt#: 1
!
!  Bkpos        Wdt    Iabscor for Pattern#  1
   53000.000   12.00     2
!NCY  Eps  R_at  R_an  R_pr  R_gl
  1  0.05  0.50  0.50  0.10  0.50
!    TOF-min      <Step>       TOF-max  -> Patt#: 1
  40158.2305     31.8651 135592.4688
!
!2Theta/TOF/E(Kev)   Background  for Pattern#  1
     40111.8789         0.0167          0.00
     41193.5664         0.1485          0.00
     42041.3750         0.1848          0.00
     42713.7734         0.1975          0.00
     44409.3945         0.1891          0.00
     45198.7344         0.2147          0.00
     46251.1875         0.1887          0.00
     49350.0742         0.2194          0.00
     51289.6836         0.1991          0.00
     55245.1992         0.1981          0.00
     55679.7070         0.2276          0.00
     56383.9102         0.2439          0.00
     58956.1797         0.2907          0.00
     61536.4570         0.3067          0.00
     63768.0469         0.3242          0.00
     65581.2109         0.2973          0.00
     70183.8516         0.2575          0.00
     71787.8203         0.2321          0.00
     78343.1094         0.2158          0.00
     80016.8047         0.1694          0.00
     98141.8516         0.2400          0.00
     99262.2344         0.4335          0.00
    100985.8516         0.4375          0.00
    101933.8516         0.3427          0.00
    108656.0312         0.5339          0.00
    110896.7500         0.9537          0.00
    113137.4844         1.1668          0.00
    114430.2031         1.1164          0.00
    116929.4844         0.9161          0.00
    119428.7422         0.6885          0.00
    134506.3438         0.0692          0.00
! 
! Excluded regions (LowT  HighT) for Pattern#  1
    20000.00    40000.00
   130000.00   180000.00
! 
!
       0    !Number of refined parameters
!
!    Zero       Code      Dtt1      Code       Dtt2     Code  Dtt_1overd    Code  2ThetaBank  -> Patt#  1
   -10.29183    0.00 54902.18750    0.00     0.00000    0.00     0.00000    0.00    90.000
!-------------------------------------------------------------------------------
!  Data for PHASE number:   1  ==> Current R_Bragg for Pattern#  1:   7.9206
!-------------------------------------------------------------------------------
ferrite
!
!Nat Dis Ang Jbt Isy Str Furth        ATZ     Nvk More
   1   0   0   0   0   0   0        111.6583   0   0
!Contributions (0/1) of this phase to the  1 patterns
 1
!Irf Npr Jtyp  Nsp_Ref Ph_Shift for Pattern#  1
   0   7   -1      0      0
! Pr1    Pr2    Pr3   Brind.   Rmua   Rmub   Rmuc     for Pattern#  1
  0.000  0.000  1.000  1.000  0.000  0.000  0.000
!
!
I m -3 m                 <--Space group symbol
!Atom   Typ       X        Y        Z     Biso       Occ     In Fin N_t Spc /Codes
Fe     FE      0.00000  0.00000  0.00000  1.71513   0.02083   0   0   0    0  
                  0.00     0.00     0.00     0.00      0.00
!-------> Profile Parameters for Pattern #   1  ----> Phase #   1
!  Scale          Extinc       Bov      Str1      Str2      Str3    Strain-Mode
  401.4629        0.0000    0.0000    0.0000    0.0000    0.0000         0
       0.00000      0.00      0.00      0.00      0.00      0.00
!      Sigma-2       Sigma-1       Sigma-0       Sigma-Q   Iso-GStrain     Iso-GSize     Ani-LSize   Size-Model
      311.7041     1283.6387      893.6397        0.0000        0.0000        0.0000        0.0000       0
          0.00          0.00          0.00          0.00          0.00          0.00          0.00
!      Gamma-2       Gamma-1       Gamma-0   Iso-LorStrain   Iso-LorSize
        0.0000        0.0000        5.0330        0.0000        0.0000
          0.00          0.00          0.00          0.00          0.00
!     a          b         c        alpha      beta       gamma      # Cell Info
   2.886000   2.886000   2.886000  90.000000  90.000000  90.000000   
    0.00000    0.00000    0.00000    0.00000    0.00000    0.00000
!      Pref1      Pref2        <Not yet used parameters for TOF Voigt>
    1.000000    0.000000    0.000000    0.000000    0.000000    0.000000    0.000000    0.000000
        0.00        0.00        0.00        0.00        0.00        0.00        0.00        0.00
!Absorption correction parameters
   0.00000    0.00   0.00000    0.00            ABS: ABSCOR1  ABSCOR2
!  2Th1/TOF1    2Th2/TOF2  Pattern to plot
   40294.496  117795.422       1
