COMM La0.5Ba0.5CoO3
! Current global Chi2 (Bragg contrib.) =      1.302    
! Files => DAT-file: lbco.dat,  PCR-file: lbco
!Job Npr Nph Nba Nex Nsc Nor Dum Iwg Ilo Ias Res Ste Nre Cry Uni Cor Opt Aut
   1   7   1   5   2   0   0   0   0   0   0   0   0   0   0   0   0   1   1
!
!Ipr Ppl Ioc Mat Pcr Ls1 Ls2 Ls3 NLI Prf Ins Rpa Sym Hkl Fou Sho Ana
   2   2   1   0   1   0   4   0   0   2  10   1   1   0   0   1   1
!
! Lambda1  Lambda2    Ratio    Bkpos    Wdt    Cthm     muR   AsyLim   Rpolarz  2nd-muR -> Patt# 1
 1.494000 1.494000  0.00000   77.275  30.000  0.0000  0.0000  160.00    0.0000  0.0000
!
!NCY  Eps  R_at  R_an  R_pr  R_gl     Thmin       Step       Thmax    PSD    Sent0
500  0.05  0.20  0.20  0.20  0.20     10.3000   0.050018   164.8500   0.000   0.000
!
!2Theta/TOF/E(Kev)   Background  for Pattern#  1
        10.0000       169.0000          0.00
        30.0000       164.1000          0.00
        50.0000       166.9100          0.00
       110.0000       175.2700          0.00
       165.0000       174.5600          0.00
! 
! Excluded regions (LowT  HighT) for Pattern#  1
        0.00        5.00
      165.00      180.00
! 
!
       0    !Number of refined parameters
!
!  Zero    Code    SyCos    Code   SySin    Code  Lambda     Code MORE ->Patt# 1
  0.62040    0.0  0.00000    0.0  0.00000    0.0 0.000000    0.00   0
!-------------------------------------------------------------------------------
!  Data for PHASE number:   1  ==> Current R_Bragg for Pattern#  1:   0.0000
!-------------------------------------------------------------------------------
LBCO
!
!Nat Dis Ang Pr1 Pr2 Pr3 Jbt Irf Isy Str Furth       ATZ    Nvk Npr More
   4   0   0 0.0 0.0 1.0   0   0   0   0   0        244.138   0   7   0
!
!
P m -3 m                 <--Space group symbol
!Atom   Typ       X        Y        Z     Biso       Occ     In Fin N_t Spc /Codes
La     La      0.00000  0.00000  0.00000  0.57511   0.01042   0   0   0    0  
                  0.00     0.00     0.00     0.00      0.00
Ba     Ba      0.00000  0.00000  0.00000  0.57511   0.01042   0   0   0    0  
                  0.00     0.00     0.00     0.00      0.00
Co     Co      0.50000  0.50000  0.50000  0.26023   0.02083   0   0   0    0  
                  0.00     0.00     0.00     0.00      0.00
O      O       0.00000  0.50000  0.50000  1.36662   0.06116   0   0   0    0  
                  0.00     0.00     0.00     0.00      0.00
!-------> Profile Parameters for Pattern #   1  ----> Phase #   1
!  Scale          Shape1      Bov      Str1      Str2      Str3   Strain-Model
  9.405870       0.00000   0.00000   0.00000   0.00000   0.00000       0
       0.00000     0.000     0.000     0.000     0.000     0.000
!       U            V            W             X            Y         GauSiz      LorSiz    Size-Model
     0.081547    -0.115345     0.121125     0.000000     0.083038     0.000000     0.000000       0
         0.00         0.00         0.00         0.00         0.00         0.00         0.00
!     a          b         c        alpha      beta       gamma      # Cell Info
   3.890790   3.890790   3.890790  90.000000  90.000000  90.000000   #box -0.25 1.25 -0.15 1.15 -0.15 1.15
    0.00000    0.00000    0.00000    0.00000    0.00000    0.00000
!  Pref1    Pref2      Asy1     Asy2     Asy3     Asy4      S_L      D_L
  0.00000  0.00000  0.00000  0.00000  0.00000  0.00000  0.00000  0.00000
     0.00     0.00     0.00     0.00     0.00     0.00     0.00     0.00
!  2Th1/TOF1    2Th2/TOF2  Pattern to plot
      10.300     155.450       1
