COMM CoSiO D20 01_001 497.379 K, Biso-tied fit at convergence, every parameter fixed
! Current global Chi2 (Bragg contrib.) =      5.129    
! Files => DAT-file: cosio.dat,  PCR-file: cosio
!Job Npr Nph Nba Nex Nsc Nor Dum Iwg Ilo Ias Res Ste Nre Cry Uni Cor Opt Aut
   1   7   1  14   2   0   0   0   0   0   0   0   0   0   0   0   0   0   0
!
!Ipr Ppl Ioc Mat Pcr Ls1 Ls2 Ls3 NLI Prf Ins Rpa Sym Hkl Fou Sho Ana
   0   2   1   0   2   0   4   0   0   2  10   0   0   0   0   0   0
!
! Lambda1  Lambda2    Ratio    Bkpos    Wdt    Cthm     muR   AsyLim   Rpolarz  2nd-muR -> Patt# 1
 1.870000 1.870000  0.00000   70.000   8.000  0.0000  0.0000  160.00    0.0000  0.0000
!
!NCY  Eps  R_at  R_an  R_pr  R_gl     Thmin       Step       Thmax    PSD    Sent0
100  0.01  1.00  1.00  1.00  1.00      0.0953   0.100134   150.8953   0.000   0.000
!
!2Theta/TOF/E(Kev)   Background  for Pattern#  1
         8.5000       619.1257          0.00
         9.0000       586.2126          0.00
        10.0000       582.6751          0.00
        11.0000       561.6439          0.00
        12.0000       539.5827          0.00
        15.0000       510.5825          0.00
        25.0000       472.4480          0.00
        30.0000       461.5033          0.00
        50.0000       473.1583          0.00
        70.0000       459.7535          0.00
        90.0000       448.8273          0.00
       110.0000       395.8059          0.00
       130.0000       318.8189          0.00
       149.0000       266.6464          0.00
! 
! Excluded regions (LowT  HighT) for Pattern#  1
        0.00        8.00
      150.00      180.00
! 
!
       0    !Number of refined parameters
!
!  Zero    Code    SyCos    Code   SySin    Code  Lambda     Code MORE ->Patt# 1
  0.29052  0.00  0.00000  0.00  0.00000  0.00  0.000000  0.00  0
!-------------------------------------------------------------------------------
!  Data for PHASE number:   1  ==> Current R_Bragg for Pattern#  1:   8.5908
!-------------------------------------------------------------------------------
CoSiO
!
!Nat Dis Ang Pr1 Pr2 Pr3 Jbt Irf Isy Str Furth       ATZ    Nvk Npr More
   6   0   0 0.0 0.0 1.0   0   0   0   0   0        839.800   0   7   0
!
!
P n m a                  <--Space group symbol
!Atom   Typ       X        Y        Z     Biso       Occ     In Fin N_t Spc /Codes
Co1    Co      0.00000  0.00000  0.00000  0.67350   0.50000   0   0   0    0  
                  0.00     0.00     0.00     0.00      0.00
Co2    Co      0.28089  0.25000  0.98242  0.67350   0.50000   0   0   0    0  
                  0.00     0.00     0.00     0.00      0.00
Si     Si      0.09411  0.25000  0.42981  0.66774   0.50000   0   0   0    0  
                  0.00     0.00     0.00     0.00      0.00
O1     O       0.09066  0.25000  0.76958  1.11432   0.50000   0   0   0    0  
                  0.00     0.00     0.00     0.00      0.00
O2     O       0.44876  0.25000  0.21563  1.10683   0.50000   0   0   0    0  
                  0.00     0.00     0.00     0.00      0.00
O3     O       0.16404  0.03218  0.28000  1.32391   1.00000   0   0   0    0  
                  0.00     0.00     0.00     0.00      0.00
!-------> Profile Parameters for Pattern #   1  ----> Phase #   1
!  Scale          Shape1      Bov      Str1      Str2      Str3   Strain-Model
  1.294665       0.00000   0.00000   0.00000   0.00000   0.00000       0
          0.00      0.00      0.00      0.00      0.00      0.00
!       U            V            W             X            Y         GauSiz      LorSiz    Size-Model
     0.231446    -0.517217     0.376236     0.000000     0.010994     0.000000     0.000000       0
         0.00         0.00         0.00         0.00         0.00         0.00         0.00
!     a          b         c        alpha      beta       gamma      # Cell Info
  10.335916   6.029712   4.797578  90.000000  90.000000  90.000000   
       0.00       0.00       0.00       0.00       0.00       0.00
!  Pref1    Pref2      Asy1     Asy2     Asy3     Asy4      S_L      D_L
  0.00000  0.00000  0.00000  0.00000  0.00000  0.00000  0.00000  0.00000
     0.00     0.00     0.00     0.00     0.00     0.00     0.00     0.00
!  2Th1/TOF1    2Th2/TOF2  Pattern to plot
       8.000     150.000       1
