COMM LATP
! Current global Chi2 (Bragg contrib.) =      7.048    
! Files => DAT-file: s13_150_z20_xrd_sum.dat,  PCR-file: latp
!Job Npr Nph Nba Nex Nsc Nor Dum Iwg Ilo Ias Res Ste Nre Cry Uni Cor Opt Aut
   0   5   3  30   2   0   1   0   0   2   1   0   0   0   0   0   0   0   1
!
!Ipr Ppl Ioc Mat Pcr Ls1 Ls2 Ls3 NLI Prf Ins Rpa Sym Hkl Fou Sho Ana
   2   2   1   1   1   0   4   0   0   3  10  -1   0   4   4   0   1
!
! Lambda1  Lambda2    Ratio    Bkpos    Wdt    Cthm     muR   AsyLim   Rpolarz  2nd-muR -> Patt# 1
 0.284570 0.284570  1.00000   10.000 15.0000  0.0000  0.3000   80.00    0.0000  0.0000
!
!NCY  Eps  R_at  R_an  R_pr  R_gl     Thmin       Step       Thmax    PSD    Sent0
 60  0.30  0.30  0.30  0.30  0.30      1.0379   0.005641    17.0999   0.000   0.000
!
!2Theta/TOF/E(Kev)   Background  for Pattern#  1
         1.0194      5889.5889        251.00
         1.5049      4647.4243        261.00
         1.9346      3739.0820        271.00
         2.2634      3236.2402        281.00
         2.5932      2855.7844        291.00
         2.9299      2532.2769        301.00
         3.5532      2109.0154        311.00
         4.1132      2043.9078        321.00
         4.3162      1736.1675        331.00
         4.9169      1537.7666        341.00
         5.2806      1502.5529        351.00
         5.7549      1392.2024        361.00
         6.3081      1429.4493        371.00
         7.0054      1283.3618        381.00
         7.6395      1229.0786        391.00
         8.4041      1128.2737        401.00
         8.8579      1135.2253        411.00
         9.5989      1027.5657        421.00
        10.0866      1155.6067        431.00
        10.4352       939.6454        441.00
        11.0748       978.5580        451.00
        11.5197      1022.8197        461.00
        12.1124       944.3736        471.00
        12.7316       972.3358        481.00
        13.2919       960.0750        491.00
        13.8908       915.9845        501.00
        14.4549       954.2068        511.00
        14.9556       880.7550        521.00
        15.9949       902.1942        531.00
        16.8880       782.5018        541.00
! 
! Excluded regions (LowT  HighT) for Pattern#  1
        0.00        1.00
       17.10      180.00
! 
!
      54    !Number of refined parameters
!
!  Zero    Code    SyCos    Code   SySin    Code  Lambda     Code MORE ->Patt# 1
  0.00000    0.0  0.00000    0.0  0.00000    0.0 0.000000    0.00   0
!-------------------------------------------------------------------------------
!  Data for PHASE number:   1  ==> Current R_Bragg for Pattern#  1:   9.2416
!-------------------------------------------------------------------------------
Li1.3 Al0.3 Ti1.7 (P O4)3
!
!Nat Dis Ang Pr1 Pr2 Pr3 Jbt Irf Isy Str Furth       ATZ    Nvk Npr More
   6   0   0 0.0 0.0 1.0   0   0   0   0   0       2287.981   0   5   0
!
!
R -3 c                   <--Space group symbol
!Atom   Typ       X        Y        Z     Biso       Occ     In Fin N_t Spc /Codes
Li1    Li      0.00000  0.00000  0.00000  0.18980   0.16667   0   0   0    0  
                  0.00     0.00     0.00     0.00      0.00
Ti1    Ti      0.00000  0.00000  0.14041  0.08303   0.28333   0   0   0    0  
                  0.00     0.00   211.00     0.00      0.00
Al1    Al      0.00000  0.00000  0.14041  0.08303   0.05000   0   0   0    0  
                  0.00     0.00   211.00     0.00      0.00
P1     P       0.28467  0.00000  0.25000  0.27211   0.50000   0   0   0    0  
                201.00     0.00     0.00     0.00      0.00
O1     O       0.16867  0.98724  0.18578  0.59169   1.00000   0   0   0    0  
                221.00   241.00   231.00     0.00      0.00
O2     O       0.17844  0.14967  0.08134  0.16362   1.00000   0   0   0    0  
                191.00   181.00   171.00     0.00      0.00
!-------> Profile Parameters for Pattern #   1  ----> Phase #   1
!  Scale          Shape1      Bov      Str1      Str2      Str3   Strain-Model
 0.4946289E-05   0.53317   0.02557   0.00000   0.00000   0.00000       0
      11.00000    71.000    61.000     0.000     0.000     0.000
!       U            V            W             X            Y         GauSiz      LorSiz    Size-Model
     0.378068     0.000000     0.000659     0.000000     0.000000     0.000000     0.000000       0
        31.00         0.00        41.00         0.00         0.00         0.00         0.00
!     a          b         c        alpha      beta       gamma      #Cell Info
   8.378689   8.378689  20.743496  90.000000  90.000000 120.000000   
   21.00000   21.00000   51.00000    0.00000    0.00000   21.00000
!  Pref1    Pref2      Asy1     Asy2     Asy3     Asy4  
  1.00000  0.00000  0.00000  0.00000  0.00000  0.00000
     0.00     0.00     0.00     0.00     0.00     0.00
!-------------------------------------------------------------------------------
!  Data for PHASE number:   2  ==> Current R_Bragg for Pattern#  1:  10.9429
!-------------------------------------------------------------------------------
AlPO4
!
!Nat Dis Ang Pr1 Pr2 Pr3 Jbt Irf Isy Str Furth       ATZ    Nvk Npr More
   4   0   0 0.0 0.0 1.0   0   0   0   0   0        487.812   0   5   0
!
!
C 2 2 21                 <--Space group symbol
!Atom   Typ       X        Y        Z     Biso       Occ     In Fin N_t Spc /Codes
Al1    Al      0.00000  0.19952  0.25000  0.00000   0.50000   0   0   0    0  
                  0.00     0.00     0.00     0.00      0.00
P1     P       0.30203  0.00000  0.00000  0.00000   0.50000   0   0   0    0  
                  0.00     0.00     0.00     0.00      0.00
O1     O       0.18216  0.05769  0.17000  0.00000   1.00000   0   0   0    0  
                  0.00     0.00     0.00     0.00      0.00
O2     O       0.42615  0.16430  0.93983  0.00000   1.00000   0   0   0    0  
                  0.00     0.00     0.00     0.00      0.00
!-------> Profile Parameters for Pattern #   1  ----> Phase #   2
!  Scale          Shape1      Bov      Str1      Str2      Str3   Strain-Model
 0.6378149E-05   0.53317   3.53285   0.00000   0.00000   0.00000       0
      81.00000    71.000   151.000     0.000     0.000     0.000
!       U            V            W             X            Y         GauSiz      LorSiz    Size-Model
     0.378068     0.000000     0.000659     0.000000     0.000000     0.000000     0.000000       0
        31.00         0.00        41.00         0.00         0.00         0.00         0.00
!     a          b         c        alpha      beta       gamma      #Cell Info
   7.126189   7.219260   7.123702  90.000000  90.000000  90.000000   
  111.00000  101.00000   91.00000    0.00000    0.00000    0.00000
!  Pref1    Pref2      Asy1     Asy2     Asy3     Asy4  
  1.00000  0.00000  0.00000  0.00000  0.00000  0.00000
     0.00     0.00     0.00     0.00     0.00     0.00
!-------------------------------------------------------------------------------
!  Data for PHASE number:   3  ==> Current R_Bragg for Pattern#  1:  18.4332
!-------------------------------------------------------------------------------
Al P O4
!
!Nat Dis Ang Pr1 Pr2 Pr3 Jbt Irf Isy Str Furth       ATZ    Nvk Npr More
   4   0   0 0.0 0.0 1.0   0   0   0   0   0        243.914   0   5   0
!
!
P 63 m c                 <--Space group symbol
!Atom   Typ       X        Y        Z     Biso       Occ     In Fin N_t Spc /Codes
Al1    Al      0.33333  0.66667  0.06250  0.00000   0.16667   0   0   0    0  
                  0.00     0.00     0.00     0.00      0.00
P1     P       0.33333  0.66667  0.43650  0.00000   0.16667   0   0   0    0  
                  0.00     0.00     0.00     0.00      0.00
O1     O       0.33333  0.66667  0.26160  0.00000   0.16667   0   0   0    0  
                  0.00     0.00     0.00     0.00      0.00
O2     O       0.51090  0.48910 -0.00460  0.00000   0.50000   0   0   0    0  
                  0.00     0.00     0.00     0.00      0.00
!-------> Profile Parameters for Pattern #   1  ----> Phase #   3
!  Scale          Shape1      Bov      Str1      Str2      Str3   Strain-Model
 0.4227520E-05   0.53317  -2.76624   0.00000   0.00000   0.00000       0
     131.00000    71.000   161.000     0.000     0.000     0.000
!       U            V            W             X            Y         GauSiz      LorSiz    Size-Model
     0.378068     0.000000     0.000659     0.000000     0.000000     0.000000     0.000000       0
        31.00         0.00        41.00         0.00         0.00         0.00         0.00
!     a          b         c        alpha      beta       gamma      #Cell Info
   5.050485   5.050485   8.360072  90.000000  90.000000 120.000000   
  121.00000  121.00000  141.00000    0.00000    0.00000  121.00000
!  Pref1    Pref2      Asy1     Asy2     Asy3     Asy4  
  1.00000  0.00000  0.00000  0.00000  0.00000  0.00000
     0.00     0.00     0.00     0.00     0.00     0.00
!  2Th1/TOF1    2Th2/TOF2  Pattern to plot
       1.038      17.100       1
